(declare-const term_to_project_onto0 Real)
(declare-const |main__x'| Int)
(declare-const |main__y'| Int)
(declare-const main__x Int)
(declare-const term_to_project_onto Real)
(declare-const main__y Int)
(assert (and (<= (- main__x) 0)
               (or (<= (+ main__x 1) 0) (<= (+ (- main__x) 1) 0))
               (= (+ (- main__y) |main__y'| 1) 0)
               (= (+ |main__x'| (- main__x) 1) 0)
               (= term_to_project_onto0 (+ |main__x'| (- main__x)))
               (= term_to_project_onto (+ |main__y'| (- main__y)))))
(check-sat)
